Problem:    
Rows:       105
Columns:    45 (34 integer, 34 binary)
Non-zeros:  302
Status:     INTEGER OPTIMAL
Objective:  value = 46.67024 (MINimum)

   No.   Row name        Activity     Lower bound   Upper bound
------ ------------    ------------- ------------- -------------
     1 r.5                   46.6702             0               
     2 r.6                     3.429      -459.726               
     3 r.7                    546.67             0               
     4 r.8                  -459.597      -481.528               
     5 r.9                   46.6702             0               
     6 r.10                 -36.8449      -471.002               
     7 r.11                   546.67             0               
     8 r.12                  -478.07       -489.57               
     9 r.13                  46.6702             0               
    10 r.14                  22.5554      -480.874               
    11 r.15                   546.67             0               
    12 r.16                  -453.33      -493.732               
    13 r.17                   546.67             0               
    14 r.18                  -453.33      -475.885               
    15 r.19                  46.6702             0               
    16 r.20                  11.5003      -488.712               
    17 r.21                   546.67             0               
    18 r.22                 -498.171      -498.171               
    19 r.23                  46.6702             0               
    20 r.24                   1.8291      -497.812               
    21 r.25                        1             1             = 
    22 r.26                        1             1             = 
    23 r.27                        1             1             = 
    24 r.28                        1             1             = 
    25 r.29                        1             1             = 
    26 r.30                  459.726       28.9981               
    27 r.31                 -459.726      -459.726               
    28 r.32                  481.528         10.43               
    29 r.33                 -481.528      -481.528               
    30 r.34                  19.1264       19.1264               
    31 r.35                 -19.1264      -459.726               
    32 r.36                   6.2676        6.2676               
    33 r.37                  -6.2676      -481.528               
    34 r.38                  43.2412       24.1149               
    35 r.39                 -43.2412      -459.726               
    36 r.40                  471.098       11.2877               
    37 r.41                 -471.098      -481.528               
    38 r.42                   1.5999      -455.147               
    39 r.43                 -461.426      -471.856               
    40 r.44                   1.5999      -455.147               
    41 r.45                 -461.426      -471.856               
    42 r.46                  40.2739       40.2739               
    43 r.47                 -40.2739      -471.002               
    44 r.48                  18.4723       18.4723               
    45 r.49                 -18.4723       -489.57               
    46 r.50                  59.4003       19.1264               
    47 r.51                 -59.4003      -471.002               
    48 r.52                  24.7399        6.2676               
    49 r.53                 -24.7399       -489.57               
    50 r.54                  83.5152       24.1149               
    51 r.55                 -83.5152      -471.002               
    52 r.56                   489.57       11.2877               
    53 r.57                  -489.57       -489.57               
    54 r.58                  -38.674      -466.423               
    55 r.59                 -479.899      -479.899               
    56 r.60                  -38.674      -466.423               
    57 r.61                 -479.899      -479.899               
    58 r.62                  480.874       40.2739               
    59 r.63                 -480.874      -480.874               
    60 r.64                  493.732       18.4723               
    61 r.65                 -493.732      -493.732               
    62 r.66                    440.6       28.9981               
    63 r.67                   -440.6      -480.874               
    64 r.68                   475.26         10.43               
    65 r.69                  -475.26      -493.732               
    66 r.70                  24.1149       24.1149               
    67 r.71                 -24.1149      -480.874               
    68 r.72                   464.83       11.2877               
    69 r.73                  -464.83      -493.732               
    70 r.74                  20.7263      -476.294               
    71 r.75                 -455.159      -484.061               
    72 r.76                  20.7263      -476.294               
    73 r.77                 -455.159      -484.061               
    74 r.78                  456.759       40.2739               
    75 r.79                 -456.759      -475.885               
    76 r.80                  28.9023       18.4723               
    77 r.81                 -28.9023      -488.712               
    78 r.82                  416.485       28.9981               
    79 r.83                 -416.485      -475.885               
    80 r.84                    10.43         10.43               
    81 r.85                   -10.43      -488.712               
    82 r.86                  475.885       19.1264               
    83 r.87                 -475.885      -475.885               
    84 r.88                  35.1699        6.2676               
    85 r.89                 -35.1699      -488.712               
    86 r.90                 -455.159      -471.306               
    87 r.91                  9.67124      -479.041               
    88 r.92                 -455.159      -471.306               
    89 r.93                  9.67124      -479.041               
    90 r.94                   1.5999      -455.147               
    91 r.95                 -461.426      -471.856               
    92 r.96                   1.5999      -455.147               
    93 r.97                 -461.426      -471.856               
    94 r.98                  -38.674      -466.423               
    95 r.99                 -479.899      -479.899               
    96 r.100                 -38.674      -466.423               
    97 r.101                -479.899      -479.899               
    98 r.102                 20.7263      -476.294               
    99 r.103                -455.159      -484.061               
   100 r.104                 20.7263      -476.294               
   101 r.105                -455.159      -484.061               
   102 r.106                -455.159      -471.306               
   103 r.107                 9.67124      -479.041               
   104 r.108                -455.159      -471.306               
   105 r.109                 9.67124      -479.041               

   No. Column name       Activity     Lower bound   Upper bound
------ ------------    ------------- ------------- -------------
     1 tt                    46.6702             0               
     2 s_1_1        *              0             0             1 
     3 t_1_1                 43.2412             0               
     4 s_2_1        *              1             0             1 
     5 t_2_1                  6.2676             0               
     6 s_1_2        *              0             0             1 
     7 t_1_2                 83.5152             0               
     8 s_2_2        *              1             0             1 
     9 t_2_2                 24.7399             0               
    10 s_1_3        *              0             0             1 
    11 t_1_3                 24.1149             0               
    12 s_2_3        *              1             0             1 
    13 t_2_3                       0             0               
    14 s_1_4        *              1             0             1 
    15 t_1_4                       0             0               
    16 s_2_4        *              0             0             1 
    17 t_2_4                 35.1699             0               
    18 s_1_5        *              1             0             1 
    19 t_1_5                 44.8411             0               
    20 s_2_5        *              0             0             1 
    21 t_2_5                 44.8411             0               
    22 u_1_1_2      *              1             0             1 
    23 u_2_1_2      *              1             0             1 
    24 u_1_1_3      *              0             0             1 
    25 u_2_1_3      *              0             0             1 
    26 u_1_1_4      *              0             0             1 
    27 u_2_1_4      *              1             0             1 
    28 u_1_2_1      *              0             0             1 
    29 u_2_2_1      *              0             0             1 
    30 u_1_2_3      *              0             0             1 
    31 u_2_2_3      *              0             0             1 
    32 u_1_2_4      *              0             0             1 
    33 u_2_2_4      *              1             0             1 
    34 u_1_3_1      *              1             0             1 
    35 u_2_3_1      *              1             0             1 
    36 u_1_3_2      *              1             0             1 
    37 u_2_3_2      *              1             0             1 
    38 u_1_3_4      *              0             0             1 
    39 u_2_3_4      *              1             0             1 
    40 u_1_4_1      *              1             0             1 
    41 u_2_4_1      *              0             0             1 
    42 u_1_4_2      *              1             0             1 
    43 u_2_4_2      *              0             0             1 
    44 u_1_4_3      *              1             0             1 
    45 u_2_4_3      *              0             0             1 

Integer feasibility conditions:

KKT.PE: max.abs.err = 5.68e-14 on row 28
        max.rel.err = 7.04e-17 on row 44
        High quality

KKT.PB: max.abs.err = 5.68e-14 on row 18
        max.rel.err = 1.77e-16 on row 30
        High quality

End of output
